n_res = 5;
rcap = [19, 29, 89, 100, 88];
rtype = [1, 1, 2, 2, 2];
n_tasks = 16;
modes = [ {1, 2, 3}, {4, 5, 6}, {7, 8, 9}, {10, 11, 12}, {13, 14, 15}, {16, 17, 18}, {19, 20, 21}, {22, 23, 24}, {25, 26, 27}, {28, 29, 30}, {31, 32, 33}, {34, 35, 36}, {37, 38, 39}, {40, 41, 42}, {43, 44, 45}, {46, 47, 48} ];
succ = [ {4, 7, 10}, {4, 5, 10}, {10, 13, 15}, {8, 9, 15}, {6, 9}, {7, 15}, {8}, {11, 12}, {11, 13}, {11}, {14, 16}, {13, 16}, {14}, {}, {}, {} ];
n_opt = 48;
dur = [5, 10, 10, 4, 4, 7, 5, 6, 8, 1, 4, 5, 2, 2, 2, 1, 7, 9, 1, 8, 10, 1, 1, 3, 3, 3, 4, 2, 8, 9, 1, 5, 10, 5, 6, 10, 3, 5, 9, 3, 3, 5, 1, 4, 6, 4, 6, 6];
rreq = [|  0,  0,  0,  0,  0,  7,  5,  4,  0,  0,  0,  0,  0,  0,  0,  9,  6,  4,  4,  0,  0,  3,  0,  0, 10,  0, 10,  0,  0,  0,  0,  0,  7,  8,  6,  1,  0,  0,  0,  3,  1,  0,  0,  0,  0,  9,  0,  6
        |  9,  8,  8,  6,  5,  0,  0,  0,  3,  9,  8,  7,  7,  7,  7,  0,  0,  0,  0, 10,  4,  0, 10, 10,  0,  4,  0,  8,  8,  6,  4,  3,  0,  0,  0,  0,  7,  6,  3,  0,  0,  3,  7,  6,  4,  0,  3,  0
        |  4,  4,  3,  3,  3,  2,  4,  4,  2,  6,  5,  3,  8,  6,  7,  3,  2,  2,  6,  6,  6,  9, 10,  7,  9,  9,  5,  7,  5,  4,  2,  1,  1,  5,  4,  2,  5,  4,  4,  8,  9,  7,  9,  7,  4,  7,  6,  7
        |  5,  5,  4,  5,  7,  2,  8,  8,  6,  4,  3,  2,  9,  7,  8, 10,  8,  7,  6,  5,  5,  6,  6,  6,  2,  2,  2,  4,  4,  4,  7,  5,  3,  8,  5,  4,  8,  5,  4,  6,  8,  6, 10,  6,  4,  7,  6,  5
        |  5,  2,  3,  5,  6,  5,  6,  5,  3,  3,  2,  2,  3,  7,  6,  6,  5,  2,  5,  5,  4,  9,  9,  9,  5,  5,  5,  6,  5,  5,  7,  6,  6,  8,  5,  4,  4,  4,  4,  8,  7,  3,  5,  5,  4,  6,  4,  5 |];
